(set-logic QF_S)
(declare-fun var0 () String)
(declare-fun var1 () String)
(declare-fun var2 () String)
(declare-fun var3 () String)
(declare-fun var4 () Int)
(declare-fun var5 () Int)
(declare-fun var6 () Int)
(declare-fun var7 () Int)
(assert (not (str.contains var0 var1)))
(assert (str.prefixof var2 var3))
(assert (str.suffixof (str.substr var0 var4 var5) (str.at var2 var6)))
(assert (str.prefixof (str.replace var3 var0 var2) (str.substr var2 var7 var5)))
(check-sat)